RT is False
Default write of storage_offers_DA.csv just to have a file (but constraint should be inactive)
Reading model...
...model read.
creating competitive generators file...
...competitive generators recorded.
Loading data...
.. day-ahead data with real-time VRE data read.
Compiling instance...
...instance created.
Creating Offer Mitigation (model will solve as dispatch if TRUE)...
NOTE: storage offers will not be mitigated
...storage offer mitigation file created
Converting model to MPEC...
...converted
NOTE: initial MIP solve with only storage competitive to get feasible solution
Solving...

Welcome to IBM(R) ILOG(R) CPLEX(R) Interactive Optimizer 12.9.0.0
  with Simplex, Mixed Integer & Barrier Optimizers
5725-A06 5725-A29 5724-Y48 5724-Y49 5724-Y54 5724-Y55 5655-Y21
Copyright IBM Corp. 1988, 2019.  All Rights Reserved.

Type 'help' for a list of available commands.
Type 'help' followed by a command name for more
information on commands.

CPLEX> Logfile 'cplex.log' closed.
Logfile 'C:\Users\llavin\Desktop\test826\logs\tmpslq5rvtr.cplex.log' open.
CPLEX> New value for parallel optimization mode: -1
CPLEX> New value for emphasis for MIP optimization: 1
CPLEX> New value for mixed integer optimality gap tolerance: 0.01
CPLEX> New value for integrality tolerance: 1e-12
CPLEX> New value for deterministic time limit in ticks: 75000
CPLEX> Problem 'C:\Users\llavin\Desktop\test826\logs\tmpicdmee2i.pyomo.lp' read.
Read time = 0.22 sec. (13.92 ticks)
CPLEX> Problem name         : C:\Users\llavin\Desktop\test826\logs\tmpicdmee2i.pyomo.lp
Objective sense      : Maximize
Variables            :   53809  [Nneg: 1,  Box: 22004,  Free: 4464,
                                 Binary: 27340]
Objective nonzeros   :    9028
Linear constraints   :  123253  [Less: 41346,  Greater: 59096,  Equal: 22811]
  Nonzeros           :  293216
  RHS nonzeros       :   67490

Variables            : Min LB: -5000.000        Max UB: 1000000.       
Objective nonzeros   : Min   : 0.4083333        Max   : 2500.000       
Linear constraints   :
  Nonzeros           : Min   : 0.4083333        Max   : 1000000.       
  RHS nonzeros       : Min   : 0.4083333        Max   : 1000000.       
CPLEX> CPXPARAM_Parallel                                -1
CPXPARAM_Emphasis_MIP                            1
CPXPARAM_DetTimeLimit                            75000
CPXPARAM_MIP_Tolerances_MIPGap                   0.01
CPXPARAM_MIP_Tolerances_Integrality              9.9999999999999998e-13
Tried aggregator 4 times.
MIP Presolve eliminated 88760 rows and 19063 columns.
MIP Presolve added 3372 rows and 0 columns.
MIP Presolve modified 24713 coefficients.
Aggregator did 12952 substitutions.
Reduced MIP has 24913 rows, 21238 columns, and 71682 nonzeros.
Reduced MIP has 8388 binaries, 0 generals, 0 SOSs, and 0 indicators.
Presolve time = 0.33 sec. (194.90 ticks)
Probing fixed 398 vars, tightened 5256 bounds.
Probing time = 0.08 sec. (19.46 ticks)
Tried aggregator 2 times.
MIP Presolve eliminated 898 rows and 796 columns.
MIP Presolve modified 3032 coefficients.
Aggregator did 38 substitutions.
Reduced MIP has 23977 rows, 20404 columns, and 68976 nonzeros.
Reduced MIP has 7990 binaries, 0 generals, 0 SOSs, and 0 indicators.
Presolve time = 0.11 sec. (87.63 ticks)
Probing fixed 0 vars, tightened 278 bounds.
Probing time = 0.14 sec. (22.22 ticks)
Clique table members: 43024.
MIP emphasis: integer feasibility.
MIP search method: dynamic search.
Parallel mode: opportunistic, using up to 32 threads.
Root relaxation solution time = 0.52 sec. (778.46 ticks)

        Nodes                                         Cuts/
   Node  Left     Objective  IInf  Best Integer    Best Bound    ItCnt     Gap

      0     0       78.2194   247                     78.2194     6611         
*     0+    0                            0.0000       78.2194              --- 
*     0     0      integral     0       78.2194       78.2194     6726    0.00%
Elapsed time = 2.14 sec. (1700.65 ticks, tree = 0.01 MB, solutions = 2)

Root node processing (before b&c):
  Real time             =    2.17 sec. (1702.95 ticks)
Parallel b&c, 32 threads:
  Real time             =    0.00 sec. (0.00 ticks)
  Sync time (average)   =    0.00 sec.
  Wait time (average)   =    0.00 sec.
                          ------------
Total (root+branch&cut) =    2.17 sec. (1702.95 ticks)

Solution pool: 2 solutions saved.

MIP - Integer optimal solution:  Objective =  7.8219439285e+01
Solution time =    2.19 sec.  Iterations = 6726  Nodes = 0
Deterministic time = 1703.10 ticks  (778.74 ticks/sec)

CPLEX> Incumbent solution written to file 'C:\Users\llavin\Desktop\test826\logs\tmpy4yrgd1d.cplex.sol'.
CPLEX> NOTE: no warmstart specified for MIP iteration, default behavior is true
NOTE: resolving with all competitive generators using storage-only solution to warmstart
Solving...

Welcome to IBM(R) ILOG(R) CPLEX(R) Interactive Optimizer 12.9.0.0
  with Simplex, Mixed Integer & Barrier Optimizers
5725-A06 5725-A29 5724-Y48 5724-Y49 5724-Y54 5724-Y55 5655-Y21
Copyright IBM Corp. 1988, 2019.  All Rights Reserved.

Type 'help' for a list of available commands.
Type 'help' followed by a command name for more
information on commands.

CPLEX> Logfile 'cplex.log' closed.
Logfile 'C:\Users\llavin\Desktop\test826\logs\tmpoxqurxd0.cplex.log' open.
CPLEX> New value for parallel optimization mode: -1
CPLEX> New value for emphasis for MIP optimization: 1
CPLEX> New value for mixed integer optimality gap tolerance: 0.01
CPLEX> New value for integrality tolerance: 1e-12
CPLEX> New value for deterministic time limit in ticks: 75000
CPLEX> Problem 'C:\Users\llavin\Desktop\test826\logs\tmp17gxuv9v.pyomo.lp' read.
Read time = 0.23 sec. (13.94 ticks)
CPLEX> MIP start file 'C:\Users\llavin\Desktop\test826\logs\tmpnwlokk1k.cplex.mst' read.
CPLEX> Problem name         : C:\Users\llavin\Desktop\test826\logs\tmp17gxuv9v.pyomo.lp
Objective sense      : Maximize
Variables            :   54529  [Nneg: 1,  Box: 22724,  Free: 4464,
                                 Binary: 27340]
Objective nonzeros   :    9724
Linear constraints   :  123253  [Less: 41346,  Greater: 59096,  Equal: 22811]
  Nonzeros           :  293216
  RHS nonzeros       :   67490

Variables            : Min LB: -5000.000        Max UB: 1000000.       
Objective nonzeros   : Min   : 0.4083333        Max   : 2500.000       
Linear constraints   :
  Nonzeros           : Min   : 0.4083333        Max   : 1000000.       
  RHS nonzeros       : Min   : 0.4083333        Max   : 1000000.       
CPLEX> CPXPARAM_Parallel                                -1
CPXPARAM_Emphasis_MIP                            1
CPXPARAM_DetTimeLimit                            75000
CPXPARAM_MIP_Tolerances_MIPGap                   0.01
CPXPARAM_MIP_Tolerances_Integrality              9.9999999999999998e-13
Warning:  No solution found from 1 MIP starts.
Retaining values of one MIP start for possible repair.
Tried aggregator 4 times.
MIP Presolve eliminated 88760 rows and 19783 columns.
MIP Presolve added 3372 rows and 0 columns.
MIP Presolve modified 24713 coefficients.
Aggregator did 12952 substitutions.
Reduced MIP has 24913 rows, 21238 columns, and 71682 nonzeros.
Reduced MIP has 8388 binaries, 0 generals, 0 SOSs, and 0 indicators.
Presolve time = 0.34 sec. (195.32 ticks)
Probing fixed 398 vars, tightened 5256 bounds.
Probing time = 0.06 sec. (19.46 ticks)
Tried aggregator 2 times.
MIP Presolve eliminated 898 rows and 796 columns.
MIP Presolve modified 3032 coefficients.
Aggregator did 38 substitutions.
Reduced MIP has 23977 rows, 20404 columns, and 68976 nonzeros.
Reduced MIP has 7990 binaries, 0 generals, 0 SOSs, and 0 indicators.
Presolve time = 0.11 sec. (87.64 ticks)
Probing fixed 0 vars, tightened 278 bounds.
Probing time = 0.16 sec. (22.22 ticks)
Clique table members: 43024.
MIP emphasis: integer feasibility.
MIP search method: dynamic search.
Parallel mode: opportunistic, using up to 32 threads.
Root relaxation solution time = 0.53 sec. (774.98 ticks)

        Nodes                                         Cuts/
   Node  Left     Objective  IInf  Best Integer    Best Bound    ItCnt     Gap

      0     0    17679.1342   236                  17679.1342     6591         
      0     0    17679.1342    18                    Cuts: 39     6612         
      0     0    17668.5785    18                    Cuts: 20     6627         
      0     0    17667.0458    17                     Cuts: 9     6631         
Repair heuristic found nothing.
      0     8    13696.1711    12                   Covers: 5     6685         
Elapsed time = 4.47 sec. (1953.60 ticks, tree = 0.02 MB, solutions = 0)
    606   152     2784.1334    19                  17520.1298     9971         
*   619+  272                        17249.1916    17520.1298             1.57%
    966   146        cutoff          17249.1916    17423.1499    29490    1.01%
   1185    95        cutoff          17249.1916    17423.1499    29126    1.01%
   1338   104    17329.5490    14    17249.1916    17423.1499    29370    1.01%

Clique cuts applied:  1
Cover cuts applied:  16
Implied bound cuts applied:  1
Flow cuts applied:  32
Gomory fractional cuts applied:  10

Root node processing (before b&c):
  Real time             =    2.73 sec. (1913.20 ticks)
Parallel b&c, 32 threads:
  Real time             =    4.91 sec. (1229.66 ticks)
  Sync time (average)   =    1.81 sec.
  Wait time (average)   =    0.00 sec.
                          ------------
Total (root+branch&cut) =    7.64 sec. (3142.87 ticks)

Solution pool: 1 solution saved.

MIP - Integer optimal, tolerance (0.01/1e-06):  Objective =  1.7249191592e+04
Current MIP best bound =  1.7421141140e+04 (gap = 171.95, 1.00%)
Solution time =    7.66 sec.  Iterations = 29956  Nodes = 1380 (160)
Deterministic time = 3143.02 ticks  (410.53 ticks/sec)

CPLEX> Incumbent solution written to file 'C:\Users\llavin\Desktop\test826\logs\tmpakrswjed.cplex.sol'.
CPLEX> Exporting results... 
